8578
9524
10169
10733
11289
11704
12153
12480
12775
12985
13169
13282
13416
13526
13625
13688
13753
13804
13845
13892
13934
13974
14005
14019
14027
14036
14039
14039
14039
14039
14039
14039
14039
14039
14039
14039
14039
14039
14039
14039
14039
14039
14039
14039
14039
14039
14039
14039
14039
14039
14039
14039
14039
14039
14039
14039
14039
14039
14039
14039
14039
14039
14039
14039
14039
14039
14039
14039
14039
14039
14039
14039
14039
14039
14039
14039
14039
14039
14039
14039
14039
14039
14039
14039
14039
14039
14039
14039
14039
14039
14039
14039
14039
14039
14039
14039
14039
14039
14039
